70
1 0 59
2 0 9
2 1 200
3 0 97
3 1 49
4 0 43
4 3 76
5 0 181
5 1 28
5 2 274
5 3 150
5 4 296
6 0 238
6 1 172
6 3 176
6 4 57
7 0 232
7 1 114
7 2 97
7 3 314
7 4 308
7 5 170
7 6 136
8 0 126
8 1 173
8 2 210
8 3 90
8 4 216
8 5 288
8 6 110
8 7 205
9 0 172
9 2 145
9 3 260
9 6 295
9 7 273
9 8 20
10 0 160
10 1 261
10 2 202
10 3 37
10 4 270
10 5 37
10 6 315
10 7 248
10 8 38
10 9 182
11 1 151
11 2 45
11 3 112
11 4 314
11 5 69
11 6 228
11 7 191
11 10 35
12 0 16
12 1 279
12 2 13
12 3 51
12 4 288
12 5 2
12 6 193
12 7 19
12 8 120
12 9 43
12 10 127
12 11 240
13 0 99
13 1 152
13 2 112
13 3 318
13 5 204
13 6 139
13 7 155
13 9 28
13 10 122
13 11 303
13 12 222
14 0 186
14 1 208
14 2 42
14 5 112
14 6 209
14 7 22
14 8 111
14 9 168
14 10 196
14 11 306
14 12 208
14 13 206
15 0 261
15 2 35
15 3 284
15 4 70
15 5 128
15 6 27
15 7 135
15 8 26
15 9 26
15 11 201
15 12 187
15 13 137
15 14 22
16 3 2
16 4 273
16 5 136
16 6 136
16 7 268
16 8 144
16 11 319
16 12 191
16 13 3
16 15 316
17 2 111
17 3 297
17 4 225
17 5 129
17 6 43
17 7 261
17 8 232
17 10 229
17 11 180
17 12 154
17 13 45
17 16 44
18 1 102
18 2 127
18 3 8
18 4 284
18 5 182
18 7 268
18 9 154
18 10 81
18 11 63
18 12 11
18 13 15
18 14 40
18 15 261
18 16 294
18 17 27
19 0 188
19 1 200
19 3 167
19 4 203
19 5 312
19 6 126
19 7 290
19 9 307
19 10 277
19 11 129
19 12 46
19 13 296
19 14 121
19 16 227
19 17 42
19 18 290
20 1 301
20 2 301
20 4 18
20 6 77
20 7 66
20 8 118
20 9 64
20 11 307
20 12 191
20 14 192
20 15 66
20 16 77
20 17 249
20 18 92
21 1 251
21 2 261
21 3 17
21 4 101
21 5 300
21 6 26
21 7 128
21 8 145
21 10 63
21 14 117
21 15 230
21 16 104
21 17 3
21 18 192
21 20 15
22 0 217
22 1 303
22 2 22
22 3 40
22 4 32
22 5 50
22 6 298
22 8 20
22 9 306
22 13 249
22 14 122
22 15 81
22 16 117
22 18 285
22 19 295
22 20 106
23 0 264
23 1 149
23 2 31
23 3 96
23 5 40
23 6 62
23 7 277
23 8 22
23 9 301
23 11 185
23 12 114
23 13 41
23 14 125
23 15 220
23 16 142
23 17 319
23 18 65
23 19 9
23 20 274
23 21 218
23 22 154
24 0 94
24 1 72
24 3 274
24 4 135
24 5 79
24 6 186
24 7 280
24 8 23
24 9 154
24 10 87
24 11 167
24 13 226
24 14 57
24 17 86
24 18 54
24 19 29
24 20 260
24 21 129
24 22 136
24 23 77
25 0 219
25 1 278
25 2 97
25 3 9
25 5 5
25 6 290
25 7 237
25 9 220
25 10 109
25 11 203
25 12 198
25 14 273
25 15 278
25 16 289
25 17 269
25 18 267
25 19 282
25 20 221
25 21 67
25 22 117
25 23 95
25 24 73
26 0 26
26 1 113
26 2 210
26 3 171
26 5 94
26 8 299
26 10 307
26 11 225
26 12 72
26 13 11
26 14 310
26 15 39
26 16 165
26 17 15
26 18 11
26 21 279
26 22 140
26 23 122
27 1 192
27 2 311
27 3 53
27 5 20
27 8 212
27 9 144
27 10 53
27 11 1
27 12 47
27 13 145
27 14 131
27 15 213
27 16 309
27 17 5
27 18 62
27 19 66
27 20 118
27 21 89
27 22 161
27 23 250
27 25 206
28 0 39
28 1 72
28 2 56
28 5 43
28 6 56
28 7 211
28 9 113
28 10 218
28 12 73
28 13 205
28 14 104
28 16 36
28 17 43
28 19 92
28 20 319
28 21 229
28 22 45
28 23 250
28 24 259
28 25 253
28 26 95
29 2 218
29 3 78
29 4 244
29 5 24
29 6 199
29 7 164
29 8 222
29 9 54
29 11 197
29 12 11
29 13 248
29 14 63
29 16 43
29 17 248
29 18 155
29 19 199
29 20 230
29 21 140
29 22 139
29 23 130
29 24 268
29 25 205
29 26 225
29 28 212
30 0 168
30 1 106
30 2 299
30 3 61
30 4 183
30 5 199
30 6 99
30 7 314
30 8 48
30 9 286
30 10 150
30 11 55
30 12 26
30 13 288
30 14 239
30 15 161
30 16 237
30 17 244
30 18 312
30 19 103
30 21 38
30 22 196
30 24 293
30 25 248
30 26 260
30 27 230
30 29 147
31 0 146
31 1 163
31 2 86
31 4 264
31 6 169
31 7 104
31 8 318
31 10 202
31 11 299
31 12 233
31 13 109
31 14 317
31 16 168
31 17 81
31 18 120
31 19 202
31 21 248
31 24 272
31 25 268
31 26 316
31 27 61
31 28 221
31 29 105
32 0 172
32 1 163
32 2 304
32 3 305
32 4 74
32 5 108
32 6 305
32 7 258
32 8 309
32 9 94
32 10 115
32 11 214
32 14 238
32 15 80
32 16 17
32 19 235
32 20 108
32 21 43
32 22 182
32 23 12
32 24 71
32 25 152
32 29 80
32 30 38
32 31 133
33 0 285
33 2 6
33 3 45
33 4 281
33 6 254
33 7 176
33 8 11
33 10 132
33 11 129
33 12 67
33 14 180
33 15 197
33 16 33
33 17 181
33 19 137
33 20 152
33 22 309
33 24 217
33 25 250
33 27 268
33 28 219
33 29 147
33 30 166
33 31 35
34 0 20
34 1 104
34 2 175
34 3 69
34 4 237
34 5 1
34 6 226
34 7 223
34 8 14
34 9 89
34 10 14
34 12 28
34 13 155
34 14 204
34 15 46
34 16 130
34 17 223
34 18 271
34 21 300
34 23 56
34 25 48
34 27 212
34 29 319
34 30 215
35 1 50
35 2 284
35 3 2
35 4 16
35 5 102
35 6 253
35 7 113
35 8 47
35 9 113
35 10 170
35 11 261
35 12 194
35 14 251
35 17 196
35 19 164
35 20 223
35 21 98
35 22 292
35 23 243
35 24 216
35 29 292
35 30 77
35 32 137
35 33 225
35 34 67
36 0 207
36 2 57
36 3 26
36 4 258
36 5 263
36 6 15
36 7 126
36 8 151
36 9 276
36 11 40
36 12 71
36 13 21
36 14 45
36 15 172
36 16 193
36 17 97
36 19 249
36 20 171
36 21 4
36 22 124
36 23 156
36 24 268
36 25 3
36 26 114
36 27 68
36 28 28
36 29 49
36 30 26
36 31 300
36 33 261
36 34 197
37 1 216
37 2 237
37 3 123
37 4 163
37 6 163
37 8 33
37 9 270
37 11 252
37 12 305
37 13 186
37 14 152
37 16 42
37 17 260
37 18 146
37 19 214
37 20 29
37 21 125
37 23 14
37 24 92
37 25 184
37 26 315
37 27 297
37 28 144
37 29 200
37 30 246
37 33 4
37 35 183
37 36 196
38 0 268
38 1 31
38 2 25
38 3 144
38 5 135
38 6 142
38 7 144
38 8 236
38 9 260
38 10 91
38 11 203
38 12 296
38 13 160
38 15 79
38 16 90
38 17 125
38 18 248
38 21 162
38 22 176
38 23 257
38 24 170
38 25 228
38 26 149
38 27 273
38 29 111
38 31 115
38 32 25
38 34 215
38 35 188
38 36 167
38 37 286
39 0 209
39 1 226
39 2 267
39 3 272
39 4 143
39 5 78
39 6 236
39 7 214
39 8 123
39 9 163
39 10 310
39 11 291
39 12 316
39 13 20
39 14 236
39 16 249
39 17 67
39 18 306
39 19 319
39 21 62
39 22 46
39 23 265
39 24 59
39 25 296
39 26 58
39 29 30
39 30 182
39 31 211
39 32 174
39 33 37
39 34 120
39 35 61
39 37 291
40 0 125
40 1 56
40 2 283
40 4 308
40 5 94
40 6 114
40 7 85
40 8 318
40 9 89
40 10 8
40 11 78
40 12 71
40 13 110
40 14 140
40 15 105
40 16 177
40 18 162
40 19 92
40 20 225
40 21 218
40 22 308
40 23 160
40 24 32
40 25 132
40 26 223
40 27 280
40 28 287
40 29 157
40 30 250
40 31 210
40 32 103
40 34 139
40 35 83
40 36 30
40 37 151
40 38 242
40 39 5
41 0 231
41 1 127
41 3 176
41 4 139
41 5 116
41 6 109
41 7 197
41 8 114
41 9 223
41 10 38
41 12 300
41 13 263
41 16 59
41 17 86
41 18 91
41 19 92
41 20 45
41 21 141
41 22 243
41 23 209
41 24 178
41 25 241
41 26 242
41 27 88
41 28 21
41 29 58
41 30 38
41 32 293
41 33 152
41 34 318
41 35 107
41 36 124
41 37 256
41 38 239
41 39 161
41 40 1
42 0 212
42 1 109
42 2 190
42 3 71
42 4 183
42 5 221
42 6 187
42 7 208
42 8 64
42 9 303
42 10 215
42 11 268
42 13 234
42 15 252
42 16 60
42 18 163
42 19 27
42 20 145
42 21 287
42 22 84
42 23 315
42 24 97
42 26 311
42 27 279
42 28 318
42 29 311
42 30 65
42 31 92
42 32 203
42 33 293
42 34 238
42 35 82
42 37 163
42 38 35
42 39 36
42 40 54
43 2 112
43 3 23
43 4 39
43 5 182
43 7 116
43 9 126
43 11 155
43 12 88
43 13 294
43 14 252
43 15 260
43 16 276
43 17 276
43 19 173
43 20 177
43 21 110
43 22 295
43 23 60
43 24 303
43 25 223
43 26 252
43 27 318
43 28 229
43 29 65
43 30 103
43 31 100
43 32 309
43 33 10
43 34 284
43 35 237
43 36 50
43 37 238
43 38 129
43 39 273
43 40 96
43 41 225
43 42 276
44 0 106
44 1 302
44 3 116
44 4 144
44 5 246
44 8 174
44 10 271
44 11 20
44 13 70
44 14 1
44 16 216
44 17 180
44 18 47
44 20 39
44 21 199
44 22 26
44 23 27
44 25 226
44 26 228
44 27 67
44 28 308
44 29 225
44 32 200
44 33 212
44 34 235
44 35 86
44 36 24
44 37 29
44 38 212
44 39 191
44 40 60
44 41 237
44 42 48
44 43 196
45 1 287
45 2 312
45 3 150
45 4 292
45 5 265
45 7 41
45 8 183
45 9 220
45 10 299
45 11 212
45 13 208
45 14 105
45 16 122
45 17 69
45 19 193
45 20 196
45 21 113
45 22 243
45 24 195
45 25 5
45 27 8
45 28 173
45 29 223
45 31 311
45 32 11
45 33 198
45 34 4
45 35 299
45 36 302
45 37 175
45 38 207
45 41 229
45 42 68
45 43 263
46 0 69
46 2 238
46 3 80
46 4 59
46 5 100
46 6 146
46 7 175
46 8 15
46 9 216
46 10 305
46 11 130
46 13 231
46 14 220
46 15 211
46 16 201
46 17 147
46 18 101
46 19 209
46 20 270
46 21 90
46 24 289
46 25 46
46 26 61
46 27 267
46 29 250
46 30 312
46 31 268
46 32 311
46 33 216
46 35 252
46 36 280
46 38 84
46 39 303
46 40 14
46 41 32
46 42 267
46 43 134
46 44 236
46 45 300
47 0 240
47 1 256
47 2 248
47 3 162
47 4 128
47 5 193
47 6 99
47 7 32
47 8 174
47 9 233
47 11 130
47 12 24
47 13 294
47 14 217
47 15 181
47 16 186
47 17 33
47 18 154
47 21 175
47 22 276
47 23 255
47 24 4
47 25 138
47 26 316
47 27 141
47 28 224
47 29 8
47 30 78
47 31 101
47 32 254
47 33 251
47 34 202
47 35 183
47 36 75
47 37 215
47 38 111
47 40 225
47 41 46
47 42 50
47 43 124
47 44 259
47 45 265
47 46 41
48 0 73
48 1 204
48 2 39
48 3 91
48 6 90
48 7 220
48 8 195
48 9 76
48 10 81
48 11 115
48 12 90
48 13 224
48 14 38
48 16 304
48 17 295
48 18 136
48 19 167
48 20 20
48 21 203
48 22 15
48 23 241
48 24 282
48 25 125
48 26 234
48 28 222
48 29 208
48 30 10
48 31 179
48 32 89
48 33 308
48 35 221
48 36 37
48 37 171
48 38 126
48 39 136
48 40 226
48 41 62
48 42 250
48 45 136
48 47 50
49 0 187
49 1 65
49 2 15
49 3 256
49 4 245
49 5 39
49 6 310
49 7 72
49 8 151
49 9 39
49 10 118
49 11 244
49 12 164
49 13 42
49 14 72
49 15 176
49 19 37
49 20 31
49 21 235
49 22 259
49 23 119
49 24 314
49 25 279
49 26 207
49 27 268
49 28 263
49 29 236
49 30 40
49 31 141
49 33 161
49 34 74
49 35 320
49 36 142
49 37 175
49 42 294
49 43 55
49 44 140
49 45 5
49 46 178
49 47 23
49 48 229
50 0 241
50 2 114
50 5 225
50 6 174
50 7 211
50 8 6
50 9 79
50 10 81
50 11 86
50 12 304
50 13 307
50 14 257
50 16 266
50 17 182
50 18 65
50 19 186
50 20 227
50 21 181
50 22 46
50 23 163
50 24 256
50 25 280
50 26 314
50 27 227
50 28 276
50 29 260
50 30 219
50 31 73
50 32 266
50 33 118
50 34 312
50 35 201
50 36 70
50 37 174
50 38 42
50 39 171
50 41 171
50 42 221
50 43 113
50 44 43
50 45 40
50 46 117
50 48 189
50 49 86
51 0 175
51 1 195
51 2 245
51 3 232
51 5 151
51 6 281
51 7 58
51 8 282
51 9 123
51 10 63
51 11 203
51 12 143
51 15 260
51 16 34
51 17 73
51 18 45
51 20 139
51 21 178
51 23 302
51 24 33
51 25 204
51 26 193
51 28 210
51 30 276
51 31 238
51 32 193
51 34 70
51 35 67
51 36 100
51 37 158
51 38 105
51 39 231
51 40 169
51 41 28
51 44 46
51 45 83
51 46 260
51 47 258
51 48 287
51 49 289
51 50 13
52 0 163
52 1 196
52 2 37
52 3 158
52 5 301
52 6 30
52 7 303
52 9 102
52 10 220
52 11 5
52 12 254
52 13 138
52 14 190
52 16 179
52 17 65
52 18 246
52 19 278
52 20 87
52 22 31
52 23 240
52 24 318
52 25 67
52 26 173
52 28 98
52 29 76
52 30 51
52 31 70
52 32 86
52 34 201
52 35 44
52 36 193
52 38 180
52 39 114
52 41 249
52 42 281
52 44 127
52 45 292
52 46 66
52 47 187
52 48 20
52 49 88
52 50 143
53 0 35
53 2 279
53 3 159
53 4 63
53 5 22
53 6 95
53 7 135
53 8 244
53 9 18
53 10 81
53 11 295
53 12 84
53 13 95
53 14 196
53 16 24
53 17 31
53 18 192
53 19 93
53 20 243
53 21 176
53 22 200
53 23 156
53 24 16
53 25 142
53 27 202
53 29 74
53 30 242
53 31 290
53 33 216
53 34 99
53 35 159
53 36 61
53 37 190
53 38 138
53 40 194
53 41 129
53 42 265
53 46 51
53 47 13
53 48 90
53 49 135
53 50 316
53 52 14
54 0 126
54 1 121
54 2 39
54 3 250
54 4 43
54 5 193
54 6 75
54 7 33
54 9 267
54 10 65
54 11 62
54 12 189
54 13 119
54 14 112
54 15 144
54 16 76
54 17 62
54 18 25
54 20 273
54 21 90
54 23 71
54 24 73
54 25 270
54 26 168
54 27 152
54 28 153
54 30 306
54 32 51
54 33 233
54 34 261
54 35 92
54 36 149
54 37 259
54 38 37
54 39 27
54 40 68
54 41 156
54 43 245
54 44 132
54 45 188
54 47 72
54 48 83
54 49 186
54 50 319
54 51 311
54 52 297
55 0 54
55 1 31
55 2 162
55 3 77
55 4 166
55 5 203
55 6 125
55 7 176
55 8 94
55 9 59
55 10 18
55 11 172
55 12 81
55 13 250
55 14 262
55 15 110
55 16 151
55 17 129
55 18 82
55 19 187
55 20 252
55 21 103
55 23 103
55 25 162
55 27 191
55 28 176
55 29 258
55 30 269
55 32 18
55 33 282
55 34 131
55 35 155
55 36 108
55 37 28
55 38 320
55 39 115
55 40 59
55 41 165
55 44 14
55 47 266
55 48 32
55 49 146
55 50 119
55 51 155
55 52 108
55 53 247
55 54 249
56 1 35
56 2 179
56 3 60
56 4 12
56 5 104
56 6 315
56 8 30
56 11 119
56 12 251
56 13 158
56 14 79
56 15 84
56 16 196
56 17 277
56 18 87
56 19 299
56 20 42
56 21 200
56 22 33
56 25 299
56 26 24
56 28 272
56 29 208
56 30 107
56 32 52
56 33 110
56 34 284
56 35 16
56 36 150
56 37 183
56 39 225
56 40 81
56 41 13
56 43 268
56 44 310
56 45 160
56 46 196
56 47 146
56 48 80
56 50 55
56 51 255
56 53 44
56 54 41
57 1 204
57 2 235
57 3 22
57 4 160
57 6 56
57 7 155
57 8 67
57 9 8
57 10 40
57 13 130
57 14 193
57 15 165
57 16 42
57 18 283
57 19 117
57 20 41
57 21 240
57 24 31
57 25 309
57 26 215
57 27 96
57 29 292
57 30 14
57 31 206
57 32 97
57 33 246
57 35 86
57 36 166
57 37 319
57 38 312
57 39 185
57 40 71
57 41 51
57 42 280
57 43 70
57 44 252
57 45 91
57 46 156
57 47 68
57 49 319
57 50 32
57 52 142
57 53 313
57 54 288
57 55 1
57 56 91
58 0 54
58 1 231
58 2 54
58 3 131
58 4 304
58 5 274
58 6 306
58 7 318
58 8 103
58 10 287
58 12 233
58 14 223
58 18 120
58 20 241
58 21 63
58 22 116
58 24 311
58 25 141
58 27 163
58 29 148
58 30 165
58 31 231
58 32 70
58 34 54
58 35 99
58 36 221
58 38 272
58 40 248
58 41 306
58 42 241
58 43 198
58 44 109
58 45 63
58 46 190
58 47 169
58 48 90
58 49 8
58 50 206
58 51 71
58 53 293
58 54 294
58 56 48
58 57 146
59 0 258
59 1 9
59 2 275
59 3 145
59 4 179
59 5 39
59 6 292
59 7 6
59 8 2
59 9 147
59 10 61
59 11 217
59 12 149
59 14 183
59 15 11
59 17 171
59 18 273
59 19 288
59 22 116
59 24 56
59 26 159
59 27 316
59 28 186
59 29 25
59 30 50
59 31 41
59 32 3
59 33 76
59 34 295
59 36 25
59 39 67
59 42 314
59 44 176
59 46 222
59 47 103
59 50 110
59 51 5
59 53 130
59 54 256
59 55 170
59 56 12
59 57 291
60 0 48
60 2 133
60 3 307
60 5 172
60 6 91
60 7 4
60 8 215
60 9 122
60 10 29
60 11 221
60 12 254
60 14 34
60 15 8
60 16 19
60 18 309
60 19 80
60 20 238
60 21 62
60 22 303
60 23 198
60 24 60
60 25 175
60 26 30
60 27 75
60 29 228
60 30 131
60 31 50
60 32 300
60 33 202
60 36 9
60 37 293
60 38 278
60 39 318
60 41 161
60 42 20
60 43 87
60 46 208
60 47 283
60 48 54
60 49 186
60 50 179
60 51 129
60 52 108
60 53 311
60 54 172
60 57 114
60 59 309
61 0 134
61 1 14
61 4 69
61 5 272
61 6 253
61 7 267
61 8 74
61 9 282
61 10 123
61 11 48
61 12 208
61 13 148
61 14 299
61 15 266
61 16 72
61 18 144
61 19 8
61 20 29
61 21 101
61 22 25
61 23 263
61 24 295
61 25 64
61 26 188
61 27 20
61 28 124
61 29 6
61 30 68
61 32 16
61 34 255
61 36 200
61 38 205
61 41 223
61 43 173
61 44 109
61 45 190
61 47 81
61 48 284
61 49 210
61 50 7
61 51 306
61 52 222
61 53 179
61 54 17
61 55 276
61 56 63
61 58 204
61 59 137
61 60 216
62 0 220
62 1 135
62 2 160
62 4 223
62 5 122
62 6 58
62 7 108
62 9 246
62 10 247
62 12 307
62 15 54
62 17 138
62 19 86
62 20 117
62 21 143
62 22 266
62 23 47
62 24 124
62 25 229
62 27 301
62 28 197
62 31 306
62 32 28
62 33 246
62 34 128
62 36 149
62 37 216
62 38 248
62 39 183
62 40 24
62 41 274
62 42 135
62 43 283
62 44 9
62 45 26
62 46 169
62 47 150
62 48 284
62 49 268
62 51 181
62 53 120
62 54 105
62 55 1
62 56 168
62 57 160
62 58 246
62 59 43
62 61 85
63 0 47
63 1 124
63 2 19
63 3 187
63 4 282
63 5 117
63 7 175
63 10 227
63 12 67
63 13 226
63 14 186
63 15 60
63 16 226
63 17 174
63 22 300
63 23 249
63 24 57
63 25 292
63 27 58
63 28 4
63 30 46
63 31 285
63 32 134
63 34 190
63 35 228
63 36 315
63 37 168
63 38 278
63 39 294
63 40 169
63 41 264
63 42 81
63 43 2
63 44 183
63 45 309
63 47 284
63 48 179
63 49 310
63 50 159
63 52 74
63 53 120
63 54 204
63 55 157
63 56 227
63 57 68
63 58 158
63 59 229
63 60 74
63 62 120
64 0 127
64 1 84
64 2 99
64 3 291
64 4 310
64 6 65
64 7 20
64 10 159
64 11 41
64 12 124
64 13 230
64 14 289
64 15 220
64 17 135
64 18 241
64 19 32
64 21 287
64 22 51
64 23 119
64 25 227
64 26 193
64 27 286
64 28 118
64 29 284
64 30 179
64 31 243
64 32 244
64 33 257
64 34 138
64 35 26
64 36 124
64 37 24
64 38 315
64 39 90
64 40 286
64 41 159
64 42 124
64 43 258
64 44 277
64 45 319
64 46 74
64 47 94
64 48 103
64 50 52
64 51 286
64 52 95
64 53 15
64 55 57
64 57 140
64 58 5
64 60 181
64 61 60
64 62 306
64 63 204
65 1 192
65 2 167
65 3 262
65 6 268
65 7 1
65 8 287
65 9 101
65 12 11
65 13 132
65 14 161
65 15 208
65 16 269
65 17 288
65 18 271
65 19 31
65 21 290
65 22 208
65 24 220
65 25 32
65 26 70
65 27 239
65 28 238
65 29 228
65 31 49
65 32 206
65 33 23
65 34 314
65 36 207
65 37 123
65 38 13
65 41 268
65 42 94
65 43 161
65 44 99
65 45 76
65 47 208
65 48 74
65 49 269
65 50 201
65 51 228
65 52 86
65 53 65
65 54 82
65 56 95
65 59 111
65 60 47
65 61 192
65 62 132
65 63 92
65 64 310
66 0 92
66 2 89
66 3 106
66 5 180
66 6 171
66 7 192
66 8 139
66 9 231
66 10 93
66 11 98
66 13 18
66 14 231
66 15 307
66 16 122
66 18 84
66 19 114
66 20 211
66 24 218
66 25 215
66 26 66
66 27 40
66 28 147
66 29 320
66 31 310
66 32 114
66 33 9
66 34 305
66 36 140
66 38 166
66 39 63
66 40 256
66 41 96
66 42 181
66 44 289
66 45 268
66 46 52
66 47 153
66 48 319
66 49 124
66 50 184
66 51 117
66 53 121
66 54 68
66 56 23
66 57 113
66 58 237
66 59 124
66 61 34
66 62 93
66 63 153
66 64 146
66 65 133
67 0 302
67 2 238
67 3 114
67 4 231
67 5 42
67 6 278
67 7 57
67 8 266
67 9 6
67 10 164
67 11 275
67 12 235
67 13 124
67 15 40
67 16 70
67 18 175
67 19 313
67 20 214
67 23 266
67 24 210
67 25 257
67 26 311
67 27 44
67 28 129
67 29 275
67 30 140
67 32 238
67 34 77
67 35 71
67 36 72
67 37 114
67 39 214
67 40 125
67 41 23
67 43 192
67 44 55
67 45 122
67 47 130
67 49 35
67 50 106
67 51 183
67 52 163
67 53 229
67 54 37
67 56 241
67 57 314
67 60 97
67 61 212
67 62 298
67 64 165
67 65 239
67 66 94
68 0 289
68 1 236
68 2 133
68 3 186
68 4 267
68 6 109
68 7 276
68 9 269
68 10 82
68 11 138
68 14 318
68 17 261
68 18 148
68 19 127
68 20 198
68 21 284
68 22 79
68 23 275
68 25 179
68 26 5
68 27 268
68 28 130
68 29 102
68 30 6
68 31 122
68 33 27
68 34 271
68 35 122
68 36 109
68 37 211
68 38 170
68 39 99
68 40 3
68 41 197
68 42 83
68 43 299
68 44 220
68 45 311
68 46 216
68 48 225
68 49 224
68 50 84
68 51 74
68 52 5
68 53 259
68 54 226
68 55 70
68 56 252
68 57 170
68 58 213
68 59 18
68 62 274
68 63 240
68 64 197
68 65 77
68 67 219
69 0 307
69 1 245
69 2 280
69 3 306
69 4 55
69 5 285
69 6 169
69 7 269
69 9 160
69 10 303
69 11 93
69 12 283
69 13 18
69 14 244
69 15 194
69 16 185
69 18 115
69 19 83
69 20 148
69 21 143
69 25 93
69 26 237
69 27 303
69 28 163
69 29 320
69 30 11
69 31 47
69 36 94
69 37 314
69 39 310
69 40 259
69 41 11
69 42 285
69 43 223
69 44 8
69 45 35
69 46 116
69 47 148
69 48 158
69 49 167
69 51 6
69 52 179
69 53 290
69 54 128
69 56 279
69 57 33
69 58 139
69 59 314
69 60 226
69 61 285
69 62 217
69 64 130
69 65 294
69 66 227
69 67 249
69 68 98
